(set-logic QF_S)
(declare-fun _var_0xINPUT_79560_() String)
(declare-fun __woorpje_diseq_pref0_() String)
(declare-fun __woorpje_diseq_suf_l0_() String)
(declare-fun __woorpje_diseq_suf_r0_() String)
(declare-fun __woorpje_diseq_pref1_() String)
(declare-fun __woorpje_diseq_suf_l1_() String)
(declare-fun __woorpje_diseq_suf_r1_() String)
(declare-fun __woorpje_diseq_pref2_() String)
(declare-fun __woorpje_diseq_suf_l2_() String)
(declare-fun __woorpje_diseq_suf_r2_() String)
(assert (=(str.++  "cm6AfB9De3" "")(str.++ __woorpje_diseq_pref0_  "c" __woorpje_diseq_suf_l0_  "")) )
(assert (=(str.++ _var_0xINPUT_79560_  "")(str.++ __woorpje_diseq_pref0_  "3" __woorpje_diseq_suf_r0_  "")) )
(assert (=(str.++ _var_0xINPUT_79560_  "")(str.++  "3s71lxYG6e" "")) )
(assert  (<= (* (str.len _var_0xINPUT_79560_)(- 1)) (- 1)) )
(check-sat)
